NAME: ../File/prFile/tspFile/tsp_file28.tsp
COMMENT: TSP file generated by Python
TYPE: TSP
DIMENSION: 30
EDGE_WEIGHT_TYPE: EUC_2D
NODE_COORD_SECTION
1 73 36
2 50 77
3 47 99
4 8 98
5 9 31
6 10 85
7 39 80
8 30 95
9 18 68
10 43 89
11 68 47
12 49 14
13 68 55
14 15 64
15 71 98
16 12 18
17 62 92
18 70 81
19 40 16
20 52 1
21 1 19
22 63 100
23 40 91
24 88 77
25 23 53
26 99 92
27 45 5
28 26 54
29 56 42
30 14 69
EOF
